DATASET = "thpack5";
INSTANCE = "015";

WIDTH = 233;
HEIGHT = 220;
LENGTH = 587;

NO_OF_SHAPES = 12;
size = [|
  100,44,37 |
  90,78,55 |
  65,57,42 |
  85,58,41 |
  81,69,50 |
  84,78,51 |
  109,73,73 |
  73,58,52 |
  73,49,40 |
  120,60,39 |
  111,80,68 |
  71,70,53 |
|];

verticality = [|
  0,1,1 |
  1,1,1 |
  1,1,1 |
  0,1,1 |
  1,1,1 |
  1,1,1 |
  1,1,1 |
  1,1,1 |
  1,1,1 |
  0,1,1 |
  1,1,1 |
  1,1,1 |
|];

box_count = [
  8,
  7,
  10,
  7,
  12,
  6,
  7,
  13,
  15,
  5,
  9,
  5,
];
